p cnf 430 1488
-191 136 0
-191 -121 0
-191 117 0
-191 38 0
-191 -131 0
191 -136 121 -117 -38 131 0
-192 28 0
-192 -174 0
-192 -187 0
-192 -160 0
-192 -22 0
192 -28 174 187 160 22 0
-193 -54 0
-193 30 0
-193 -168 0
-193 61 0
-193 -109 0
193 54 -30 168 -61 109 0
-194 85 0
-194 94 0
-194 -18 0
-194 120 0
-194 -7 0
194 -85 -94 18 -120 7 0
-195 -28 0
-195 163 0
-195 11 0
-195 181 0
-195 34 0
195 28 -163 -11 -181 -34 0
191 192 193 194 195 0
-196 -43 0
-196 -78 0
-196 28 0
-196 74 0
-196 56 0
196 43 78 -28 -74 -56 0
-197 -121 0
-197 -173 0
-197 155 0
-197 -113 0
-197 -20 0
197 121 173 -155 113 20 0
-198 48 0
-198 171 0
-198 -79 0
-198 106 0
-198 111 0
198 -48 -171 79 -106 -111 0
-199 151 0
-199 135 0
-199 -103 0
-199 184 0
-199 -183 0
199 -151 -135 103 -184 183 0
-200 123 0
-200 158 0
-200 -54 0
-200 -86 0
-200 168 0
200 -123 -158 54 86 -168 0
196 197 198 199 200 0
-201 -28 0
-201 -144 0
-201 -10 0
-201 -51 0
-201 65 0
201 28 144 10 51 -65 0
-202 -145 0
-202 -102 0
-202 114 0
-202 163 0
-202 78 0
202 145 102 -114 -163 -78 0
-203 -180 0
-203 57 0
-203 -104 0
-203 -83 0
-203 75 0
203 180 -57 104 83 -75 0
-204 -2 0
-204 6 0
-204 -18 0
-204 136 0
-204 123 0
204 2 -6 18 -136 -123 0
-205 -70 0
-205 -9 0
-205 187 0
-205 -137 0
-205 -115 0
205 70 9 -187 137 115 0
201 202 203 204 205 0
-206 -187 0
-206 149 0
-206 -44 0
-206 -60 0
-206 -144 0
206 187 -149 44 60 144 0
-207 -38 0
-207 92 0
-207 -151 0
-207 23 0
-207 50 0
207 38 -92 151 -23 -50 0
-208 8 0
-208 -76 0
-208 61 0
-208 152 0
-208 140 0
208 -8 76 -61 -152 -140 0
-209 -29 0
-209 48 0
-209 13 0
-209 -150 0
-209 -20 0
209 29 -48 -13 150 20 0
-210 -72 0
-210 -106 0
-210 138 0
-210 65 0
-210 -90 0
210 72 106 -138 -65 90 0
206 207 208 209 210 0
-211 44 0
-211 8 0
-211 34 0
-211 109 0
-211 -99 0
211 -44 -8 -34 -109 99 0
-212 -16 0
-212 101 0
-212 56 0
-212 6 0
-212 58 0
212 16 -101 -56 -6 -58 0
-213 97 0
-213 -164 0
-213 116 0
-213 -102 0
-213 138 0
213 -97 164 -116 102 -138 0
-214 184 0
-214 180 0
-214 -152 0
-214 182 0
-214 -4 0
214 -184 -180 152 -182 4 0
-215 133 0
-215 163 0
-215 -9 0
-215 -185 0
-215 -153 0
215 -133 -163 9 185 153 0
211 212 213 214 215 0
-216 -180 0
-216 -187 0
-216 -163 0
-216 148 0
-216 -168 0
216 180 187 163 -148 168 0
-217 125 0
-217 59 0
-217 -135 0
-217 182 0
-217 -66 0
217 -125 -59 135 -182 66 0
-218 118 0
-218 3 0
-218 -149 0
-218 -108 0
-218 -33 0
218 -118 -3 149 108 33 0
-219 -145 0
-219 -78 0
-219 146 0
-219 -123 0
-219 49 0
219 145 78 -146 123 -49 0
-220 -58 0
-220 14 0
-220 -171 0
-220 -73 0
-220 148 0
220 58 -14 171 73 -148 0
216 217 218 219 220 0
-221 -38 0
-221 -118 0
-221 48 0
-221 97 0
-221 -143 0
221 38 118 -48 -97 143 0
-222 -110 0
-222 -166 0
-222 104 0
-222 1 0
-222 -21 0
222 110 166 -104 -1 21 0
-223 12 0
-223 66 0
-223 90 0
-223 181 0
-223 154 0
223 -12 -66 -90 -181 -154 0
-224 -175 0
-224 111 0
-224 145 0
-224 34 0
-224 38 0
224 175 -111 -145 -34 -38 0
-225 90 0
-225 -20 0
-225 -31 0
-225 -30 0
-225 -134 0
225 -90 20 31 30 134 0
221 222 223 224 225 0
-226 -125 0
-226 -130 0
-226 -156 0
-226 -28 0
-226 -66 0
226 125 130 156 28 66 0
-227 183 0
-227 -81 0
-227 -89 0
-227 73 0
-227 20 0
227 -183 81 89 -73 -20 0
-228 15 0
-228 163 0
-228 -13 0
-228 -35 0
-228 -31 0
228 -15 -163 13 35 31 0
-229 -105 0
-229 173 0
-229 -150 0
-229 -139 0
-229 -137 0
229 105 -173 150 139 137 0
-230 -89 0
-230 160 0
-230 12 0
-230 -153 0
-230 82 0
230 89 -160 -12 153 -82 0
226 227 228 229 230 0
-231 -32 0
-231 -55 0
-231 -182 0
-231 98 0
-231 70 0
231 32 55 182 -98 -70 0
-232 103 0
-232 45 0
-232 -1 0
-232 141 0
-232 113 0
232 -103 -45 1 -141 -113 0
-233 154 0
-233 89 0
-233 -54 0
-233 28 0
-233 68 0
233 -154 -89 54 -28 -68 0
-234 31 0
-234 -45 0
-234 123 0
-234 -152 0
-234 -74 0
234 -31 45 -123 152 74 0
-235 108 0
-235 100 0
-235 -41 0
-235 47 0
-235 -99 0
235 -108 -100 41 -47 99 0
231 232 233 234 235 0
-236 168 0
-236 170 0
-236 -45 0
-236 -181 0
-236 -129 0
236 -168 -170 45 181 129 0
-237 -30 0
-237 10 0
-237 -8 0
-237 31 0
-237 -6 0
237 30 -10 8 -31 6 0
-238 -166 0
-238 8 0
-238 -121 0
-238 119 0
-238 120 0
238 166 -8 121 -119 -120 0
-239 -185 0
-239 60 0
-239 188 0
-239 83 0
-239 -131 0
239 185 -60 -188 -83 131 0
-240 -150 0
-240 -140 0
-240 -107 0
-240 -55 0
-240 -129 0
240 150 140 107 55 129 0
236 237 238 239 240 0
-241 65 0
-241 153 0
-241 156 0
-241 64 0
-241 -99 0
241 -65 -153 -156 -64 99 0
-242 -103 0
-242 97 0
-242 104 0
-242 -37 0
-242 88 0
242 103 -97 -104 37 -88 0
-243 -137 0
-243 -144 0
-243 190 0
-243 -17 0
-243 163 0
243 137 144 -190 17 -163 0
-244 -124 0
-244 -62 0
-244 -47 0
-244 -26 0
-244 90 0
244 124 62 47 26 -90 0
-245 72 0
-245 -132 0
-245 133 0
-245 -110 0
-245 69 0
245 -72 132 -133 110 -69 0
241 242 243 244 245 0
-246 114 0
-246 38 0
-246 187 0
-246 -6 0
-246 160 0
246 -114 -38 -187 6 -160 0
-247 21 0
-247 164 0
-247 -74 0
-247 -136 0
-247 -31 0
247 -21 -164 74 136 31 0
-248 59 0
-248 156 0
-248 -15 0
-248 160 0
-248 -104 0
248 -59 -156 15 -160 104 0
-249 -90 0
-249 54 0
-249 188 0
-249 -2 0
-249 -27 0
249 90 -54 -188 2 27 0
-250 -137 0
-250 -66 0
-250 -50 0
-250 -149 0
-250 -55 0
250 137 66 50 149 55 0
246 247 248 249 250 0
-251 150 0
-251 50 0
-251 30 0
-251 25 0
-251 78 0
251 -150 -50 -30 -25 -78 0
-252 -5 0
-252 -47 0
-252 -44 0
-252 -169 0
-252 120 0
252 5 47 44 169 -120 0
-253 -138 0
-253 62 0
-253 -101 0
-253 189 0
-253 -10 0
253 138 -62 101 -189 10 0
-254 30 0
-254 139 0
-254 -90 0
-254 105 0
-254 36 0
254 -30 -139 90 -105 -36 0
-255 75 0
-255 -52 0
-255 76 0
-255 -71 0
-255 -38 0
255 -75 52 -76 71 38 0
251 252 253 254 255 0
-256 5 0
-256 -141 0
-256 -29 0
-256 111 0
-256 103 0
256 -5 141 29 -111 -103 0
-257 154 0
-257 156 0
-257 146 0
-257 -5 0
-257 -187 0
257 -154 -156 -146 5 187 0
-258 158 0
-258 90 0
-258 -31 0
-258 65 0
-258 -185 0
258 -158 -90 31 -65 185 0
-259 187 0
-259 106 0
-259 77 0
-259 -42 0
-259 -49 0
259 -187 -106 -77 42 49 0
-260 -59 0
-260 -38 0
-260 -109 0
-260 -15 0
-260 -20 0
260 59 38 109 15 20 0
256 257 258 259 260 0
-261 -171 0
-261 86 0
-261 176 0
-261 135 0
-261 -152 0
261 171 -86 -176 -135 152 0
-262 -86 0
-262 180 0
-262 -90 0
-262 -118 0
-262 9 0
262 86 -180 90 118 -9 0
-263 36 0
-263 98 0
-263 -120 0
-263 -39 0
-263 -188 0
263 -36 -98 120 39 188 0
-264 -137 0
-264 -10 0
-264 95 0
-264 94 0
-264 72 0
264 137 10 -95 -94 -72 0
-265 -23 0
-265 -86 0
-265 180 0
-265 65 0
-265 143 0
265 23 86 -180 -65 -143 0
261 262 263 264 265 0
-266 6 0
-266 165 0
-266 -160 0
-266 129 0
-266 29 0
266 -6 -165 160 -129 -29 0
-267 46 0
-267 -181 0
-267 87 0
-267 183 0
-267 -126 0
267 -46 181 -87 -183 126 0
-268 1 0
-268 -40 0
-268 184 0
-268 -183 0
-268 128 0
268 -1 40 -184 183 -128 0
-269 143 0
-269 -126 0
-269 161 0
-269 115 0
-269 -66 0
269 -143 126 -161 -115 66 0
-270 147 0
-270 -20 0
-270 32 0
-270 -138 0
-270 125 0
270 -147 20 -32 138 -125 0
266 267 268 269 270 0
-271 13 0
-271 48 0
-271 115 0
-271 -111 0
-271 29 0
271 -13 -48 -115 111 -29 0
-272 -188 0
-272 -154 0
-272 33 0
-272 -144 0
-272 11 0
272 188 154 -33 144 -11 0
-273 -12 0
-273 157 0
-273 -72 0
-273 140 0
-273 154 0
273 12 -157 72 -140 -154 0
-274 6 0
-274 -186 0
-274 -12 0
-274 114 0
-274 -79 0
274 -6 186 12 -114 79 0
-275 -177 0
-275 -130 0
-275 -53 0
-275 -55 0
-275 -64 0
275 177 130 53 55 64 0
271 272 273 274 275 0
-276 93 0
-276 145 0
-276 -3 0
-276 -71 0
-276 33 0
276 -93 -145 3 71 -33 0
-277 -161 0
-277 -34 0
-277 102 0
-277 -148 0
-277 146 0
277 161 34 -102 148 -146 0
-278 150 0
-278 -114 0
-278 2 0
-278 13 0
-278 164 0
278 -150 114 -2 -13 -164 0
-279 -90 0
-279 -88 0
-279 93 0
-279 -104 0
-279 31 0
279 90 88 -93 104 -31 0
-280 -23 0
-280 60 0
-280 -129 0
-280 -100 0
-280 161 0
280 23 -60 129 100 -161 0
276 277 278 279 280 0
-281 -39 0
-281 56 0
-281 -81 0
-281 -163 0
-281 -10 0
281 39 -56 81 163 10 0
-282 -93 0
-282 60 0
-282 -13 0
-282 -146 0
-282 73 0
282 93 -60 13 146 -73 0
-283 -64 0
-283 -71 0
-283 -178 0
-283 -46 0
-283 36 0
283 64 71 178 46 -36 0
-284 -176 0
-284 -154 0
-284 146 0
-284 31 0
-284 -163 0
284 176 154 -146 -31 163 0
-285 -170 0
-285 -139 0
-285 65 0
-285 -74 0
-285 177 0
285 170 139 -65 74 -177 0
281 282 283 284 285 0
-286 61 0
-286 146 0
-286 14 0
-286 -115 0
-286 131 0
286 -61 -146 -14 115 -131 0
-287 -75 0
-287 83 0
-287 -159 0
-287 -50 0
-287 -34 0
287 75 -83 159 50 34 0
-288 124 0
-288 122 0
-288 85 0
-288 -34 0
-288 135 0
288 -124 -122 -85 34 -135 0
-289 -104 0
-289 -81 0
-289 -54 0
-289 -21 0
-289 160 0
289 104 81 54 21 -160 0
-290 174 0
-290 -126 0
-290 -19 0
-290 -81 0
-290 142 0
290 -174 126 19 81 -142 0
286 287 288 289 290 0
-291 -103 0
-291 92 0
-291 112 0
-291 115 0
-291 -90 0
291 103 -92 -112 -115 90 0
-292 55 0
-292 176 0
-292 99 0
-292 189 0
-292 -54 0
292 -55 -176 -99 -189 54 0
-293 -33 0
-293 -97 0
-293 18 0
-293 -140 0
-293 96 0
293 33 97 -18 140 -96 0
-294 -153 0
-294 4 0
-294 -58 0
-294 183 0
-294 119 0
294 153 -4 58 -183 -119 0
-295 -60 0
-295 185 0
-295 79 0
-295 -13 0
-295 94 0
295 60 -185 -79 13 -94 0
291 292 293 294 295 0
-296 -187 0
-296 -177 0
-296 -24 0
-296 138 0
-296 -38 0
296 187 177 24 -138 38 0
-297 38 0
-297 39 0
-297 -24 0
-297 151 0
-297 -73 0
297 -38 -39 24 -151 73 0
-298 -22 0
-298 -135 0
-298 1 0
-298 172 0
-298 107 0
298 22 135 -1 -172 -107 0
-299 103 0
-299 -92 0
-299 -132 0
-299 153 0
-299 -13 0
299 -103 92 132 -153 13 0
-300 32 0
-300 -13 0
-300 112 0
-300 -14 0
-300 178 0
300 -32 13 -112 14 -178 0
296 297 298 299 300 0
-301 136 0
-301 -89 0
-301 -25 0
-301 32 0
-301 149 0
301 -136 89 25 -32 -149 0
-302 -69 0
-302 -179 0
-302 -145 0
-302 -70 0
-302 -173 0
302 69 179 145 70 173 0
-303 100 0
-303 -147 0
-303 -183 0
-303 -161 0
-303 -126 0
303 -100 147 183 161 126 0
-304 184 0
-304 164 0
-304 -53 0
-304 -151 0
-304 -165 0
304 -184 -164 53 151 165 0
-305 113 0
-305 10 0
-305 135 0
-305 159 0
-305 39 0
305 -113 -10 -135 -159 -39 0
301 302 303 304 305 0
-306 -148 0
-306 -78 0
-306 41 0
-306 141 0
-306 -184 0
306 148 78 -41 -141 184 0
-307 137 0
-307 -5 0
-307 79 0
-307 21 0
-307 -72 0
307 -137 5 -79 -21 72 0
-308 151 0
-308 58 0
-308 60 0
-308 -148 0
-308 -185 0
308 -151 -58 -60 148 185 0
-309 -101 0
-309 37 0
-309 -83 0
-309 53 0
-309 24 0
309 101 -37 83 -53 -24 0
-310 -155 0
-310 60 0
-310 68 0
-310 -169 0
-310 -14 0
310 155 -60 -68 169 14 0
306 307 308 309 310 0
-311 -128 0
-311 17 0
-311 -113 0
-311 -93 0
-311 47 0
311 128 -17 113 93 -47 0
-312 -113 0
-312 62 0
-312 84 0
-312 160 0
-312 163 0
312 113 -62 -84 -160 -163 0
-313 -56 0
-313 -161 0
-313 124 0
-313 -170 0
-313 118 0
313 56 161 -124 170 -118 0
-314 157 0
-314 12 0
-314 153 0
-314 63 0
-314 68 0
314 -157 -12 -153 -63 -68 0
-315 -126 0
-315 178 0
-315 101 0
-315 -135 0
-315 50 0
315 126 -178 -101 135 -50 0
311 312 313 314 315 0
-316 64 0
-316 52 0
-316 108 0
-316 32 0
-316 -91 0
316 -64 -52 -108 -32 91 0
-317 -171 0
-317 61 0
-317 71 0
-317 -3 0
-317 126 0
317 171 -61 -71 3 -126 0
-318 57 0
-318 -12 0
-318 -184 0
-318 46 0
-318 -17 0
318 -57 12 184 -46 17 0
-319 -175 0
-319 -79 0
-319 -105 0
-319 -124 0
-319 -157 0
319 175 79 105 124 157 0
-320 147 0
-320 -38 0
-320 179 0
-320 -48 0
-320 174 0
320 -147 38 -179 48 -174 0
316 317 318 319 320 0
-321 -26 0
-321 35 0
-321 66 0
-321 22 0
-321 115 0
321 26 -35 -66 -22 -115 0
-322 168 0
-322 28 0
-322 175 0
-322 151 0
-322 -44 0
322 -168 -28 -175 -151 44 0
-323 -122 0
-323 -63 0
-323 -9 0
-323 189 0
-323 132 0
323 122 63 9 -189 -132 0
-324 -29 0
-324 4 0
-324 -102 0
-324 175 0
-324 -111 0
324 29 -4 102 -175 111 0
-325 112 0
-325 16 0
-325 -181 0
-325 -5 0
-325 -189 0
325 -112 -16 181 5 189 0
321 322 323 324 325 0
-326 -157 0
-326 -29 0
-326 -113 0
-326 -99 0
-326 150 0
326 157 29 113 99 -150 0
-327 141 0
-327 178 0
-327 -14 0
-327 161 0
-327 25 0
327 -141 -178 14 -161 -25 0
-328 -167 0
-328 153 0
-328 137 0
-328 55 0
-328 -4 0
328 167 -153 -137 -55 4 0
-329 55 0
-329 -101 0
-329 -183 0
-329 -142 0
-329 -117 0
329 -55 101 183 142 117 0
-330 -32 0
-330 -170 0
-330 141 0
-330 -163 0
-330 -183 0
330 32 170 -141 163 183 0
326 327 328 329 330 0
-331 -175 0
-331 80 0
-331 -120 0
-331 125 0
-331 86 0
331 175 -80 120 -125 -86 0
-332 -148 0
-332 -172 0
-332 -17 0
-332 -124 0
-332 -128 0
332 148 172 17 124 128 0
-333 1 0
-333 169 0
-333 -126 0
-333 -46 0
-333 -125 0
333 -1 -169 126 46 125 0
-334 -112 0
-334 63 0
-334 -183 0
-334 -168 0
-334 -137 0
334 112 -63 183 168 137 0
-335 -155 0
-335 27 0
-335 -136 0
-335 -13 0
-335 -68 0
335 155 -27 136 13 68 0
331 332 333 334 335 0
-336 -12 0
-336 173 0
-336 -17 0
-336 -183 0
-336 -147 0
336 12 -173 17 183 147 0
-337 106 0
-337 -187 0
-337 57 0
-337 -127 0
-337 3 0
337 -106 187 -57 127 -3 0
-338 -117 0
-338 -142 0
-338 151 0
-338 -186 0
-338 -77 0
338 117 142 -151 186 77 0
-339 -73 0
-339 9 0
-339 54 0
-339 -161 0
-339 179 0
339 73 -9 -54 161 -179 0
-340 153 0
-340 2 0
-340 162 0
-340 87 0
-340 16 0
340 -153 -2 -162 -87 -16 0
336 337 338 339 340 0
-341 -128 0
-341 -129 0
-341 -73 0
-341 57 0
-341 -78 0
341 128 129 73 -57 78 0
-342 131 0
-342 -72 0
-342 -24 0
-342 108 0
-342 -189 0
342 -131 72 24 -108 189 0
-343 55 0
-343 -107 0
-343 -115 0
-343 -54 0
-343 94 0
343 -55 107 115 54 -94 0
-344 97 0
-344 -135 0
-344 162 0
-344 -120 0
-344 -156 0
344 -97 135 -162 120 156 0
-345 -138 0
-345 -147 0
-345 -93 0
-345 125 0
-345 -41 0
345 138 147 93 -125 41 0
341 342 343 344 345 0
-346 -63 0
-346 -125 0
-346 -148 0
-346 -174 0
-346 -14 0
346 63 125 148 174 14 0
-347 -150 0
-347 102 0
-347 16 0
-347 118 0
-347 110 0
347 150 -102 -16 -118 -110 0
-348 32 0
-348 -45 0
-348 -66 0
-348 51 0
-348 -11 0
348 -32 45 66 -51 11 0
-349 111 0
-349 -148 0
-349 -42 0
-349 -91 0
-349 -53 0
349 -111 148 42 91 53 0
-350 -29 0
-350 41 0
-350 -114 0
-350 -67 0
-350 63 0
350 29 -41 114 67 -63 0
346 347 348 349 350 0
-351 -13 0
-351 62 0
-351 48 0
-351 -14 0
-351 -46 0
351 13 -62 -48 14 46 0
-352 129 0
-352 20 0
-352 124 0
-352 -127 0
-352 27 0
352 -129 -20 -124 127 -27 0
-353 106 0
-353 -72 0
-353 15 0
-353 62 0
-353 -75 0
353 -106 72 -15 -62 75 0
-354 24 0
-354 67 0
-354 52 0
-354 -136 0
-354 -25 0
354 -24 -67 -52 136 25 0
-355 141 0
-355 135 0
-355 68 0
-355 -23 0
-355 -175 0
355 -141 -135 -68 23 175 0
351 352 353 354 355 0
-356 -72 0
-356 -60 0
-356 9 0
-356 43 0
-356 87 0
356 72 60 -9 -43 -87 0
-357 -104 0
-357 -82 0
-357 -13 0
-357 17 0
-357 -159 0
357 104 82 13 -17 159 0
-358 -171 0
-358 -26 0
-358 55 0
-358 -35 0
-358 51 0
358 171 26 -55 35 -51 0
-359 -83 0
-359 140 0
-359 -157 0
-359 -90 0
-359 1 0
359 83 -140 157 90 -1 0
-360 -32 0
-360 138 0
-360 -163 0
-360 -151 0
-360 -64 0
360 32 -138 163 151 64 0
356 357 358 359 360 0
-361 -184 0
-361 -168 0
-361 -51 0
-361 176 0
-361 13 0
361 184 168 51 -176 -13 0
-362 63 0
-362 -96 0
-362 190 0
-362 -116 0
-362 -185 0
362 -63 96 -190 116 185 0
-363 99 0
-363 -66 0
-363 133 0
-363 164 0
-363 97 0
363 -99 66 -133 -164 -97 0
-364 157 0
-364 60 0
-364 -176 0
-364 -27 0
-364 -136 0
364 -157 -60 176 27 136 0
-365 110 0
-365 39 0
-365 -156 0
-365 -170 0
-365 48 0
365 -110 -39 156 170 -48 0
361 362 363 364 365 0
-366 -46 0
-366 153 0
-366 -101 0
-366 49 0
-366 190 0
366 46 -153 101 -49 -190 0
-367 -19 0
-367 42 0
-367 -13 0
-367 -177 0
-367 -4 0
367 19 -42 13 177 4 0
-368 183 0
-368 59 0
-368 165 0
-368 146 0
-368 47 0
368 -183 -59 -165 -146 -47 0
-369 -55 0
-369 171 0
-369 -102 0
-369 -109 0
-369 24 0
369 55 -171 102 109 -24 0
-370 -173 0
-370 -146 0
-370 102 0
-370 23 0
-370 42 0
370 173 146 -102 -23 -42 0
366 367 368 369 370 0
-371 -42 0
-371 -30 0
-371 -174 0
-371 -9 0
-371 -135 0
371 42 30 174 9 135 0
-372 -167 0
-372 95 0
-372 -100 0
-372 51 0
-372 -86 0
372 167 -95 100 -51 86 0
-373 47 0
-373 -71 0
-373 30 0
-373 -167 0
-373 99 0
373 -47 71 -30 167 -99 0
-374 83 0
-374 -38 0
-374 164 0
-374 60 0
-374 96 0
374 -83 38 -164 -60 -96 0
-375 175 0
-375 -182 0
-375 -171 0
-375 174 0
-375 -158 0
375 -175 182 171 -174 158 0
371 372 373 374 375 0
-376 167 0
-376 -175 0
-376 187 0
-376 168 0
-376 -64 0
376 -167 175 -187 -168 64 0
-377 -190 0
-377 -15 0
-377 12 0
-377 -36 0
-377 118 0
377 190 15 -12 36 -118 0
-378 -86 0
-378 -188 0
-378 63 0
-378 41 0
-378 45 0
378 86 188 -63 -41 -45 0
-379 74 0
-379 -71 0
-379 -88 0
-379 7 0
-379 122 0
379 -74 71 88 -7 -122 0
-380 38 0
-380 185 0
-380 74 0
-380 64 0
-380 -23 0
380 -38 -185 -74 -64 23 0
376 377 378 379 380 0
-381 185 0
-381 -75 0
-381 -143 0
-381 89 0
-381 82 0
381 -185 75 143 -89 -82 0
-382 137 0
-382 -180 0
-382 -90 0
-382 -113 0
-382 -48 0
382 -137 180 90 113 48 0
-383 50 0
-383 -36 0
-383 129 0
-383 169 0
-383 -65 0
383 -50 36 -129 -169 65 0
-384 -152 0
-384 -137 0
-384 -103 0
-384 -171 0
-384 -72 0
384 152 137 103 171 72 0
-385 -57 0
-385 44 0
-385 -152 0
-385 95 0
-385 186 0
385 57 -44 152 -95 -186 0
381 382 383 384 385 0
-386 -103 0
-386 -24 0
-386 104 0
-386 -126 0
-386 -69 0
386 103 24 -104 126 69 0
-387 5 0
-387 58 0
-387 -13 0
-387 -124 0
-387 -70 0
387 -5 -58 13 124 70 0
-388 185 0
-388 71 0
-388 39 0
-388 170 0
-388 48 0
388 -185 -71 -39 -170 -48 0
-389 37 0
-389 61 0
-389 168 0
-389 172 0
-389 27 0
389 -37 -61 -168 -172 -27 0
-390 -190 0
-390 185 0
-390 -62 0
-390 -177 0
-390 -90 0
390 190 -185 62 177 90 0
386 387 388 389 390 0
-391 -7 0
-391 58 0
-391 -62 0
-391 -131 0
-391 129 0
391 7 -58 62 131 -129 0
-392 107 0
-392 101 0
-392 -3 0
-392 70 0
-392 -27 0
392 -107 -101 3 -70 27 0
-393 138 0
-393 24 0
-393 -4 0
-393 -111 0
-393 -88 0
393 -138 -24 4 111 88 0
-394 8 0
-394 -157 0
-394 61 0
-394 -96 0
-394 60 0
394 -8 157 -61 96 -60 0
-395 48 0
-395 -62 0
-395 178 0
-395 -65 0
-395 -100 0
395 -48 62 -178 65 100 0
391 392 393 394 395 0
-396 -146 0
-396 31 0
-396 -185 0
-396 166 0
-396 159 0
396 146 -31 185 -166 -159 0
-397 6 0
-397 46 0
-397 51 0
-397 49 0
-397 -133 0
397 -6 -46 -51 -49 133 0
-398 -29 0
-398 142 0
-398 104 0
-398 108 0
-398 37 0
398 29 -142 -104 -108 -37 0
-399 -108 0
-399 -76 0
-399 -146 0
-399 -44 0
-399 -92 0
399 108 76 146 44 92 0
-400 -140 0
-400 113 0
-400 -28 0
-400 -102 0
-400 -117 0
400 140 -113 28 102 117 0
396 397 398 399 400 0
-401 -85 0
-401 139 0
-401 121 0
-401 -98 0
-401 87 0
401 85 -139 -121 98 -87 0
-402 36 0
-402 79 0
-402 159 0
-402 -25 0
-402 165 0
402 -36 -79 -159 25 -165 0
-403 -184 0
-403 4 0
-403 -29 0
-403 71 0
-403 -120 0
403 184 -4 29 -71 120 0
-404 22 0
-404 -1 0
-404 -84 0
-404 -69 0
-404 89 0
404 -22 1 84 69 -89 0
-405 184 0
-405 19 0
-405 -12 0
-405 -30 0
-405 -29 0
405 -184 -19 12 30 29 0
401 402 403 404 405 0
-406 8 0
-406 -18 0
-406 -118 0
-406 -82 0
-406 -10 0
406 -8 18 118 82 10 0
-407 -85 0
-407 176 0
-407 149 0
-407 109 0
-407 73 0
407 85 -176 -149 -109 -73 0
-408 63 0
-408 160 0
-408 170 0
-408 153 0
-408 150 0
408 -63 -160 -170 -153 -150 0
-409 24 0
-409 58 0
-409 -190 0
-409 -183 0
-409 71 0
409 -24 -58 190 183 -71 0
-410 -122 0
-410 -129 0
-410 -2 0
-410 46 0
-410 -6 0
410 122 129 2 -46 6 0
406 407 408 409 410 0
-411 18 0
-411 39 0
-411 155 0
-411 190 0
-411 169 0
411 -18 -39 -155 -190 -169 0
-412 -136 0
-412 -178 0
-412 -13 0
-412 -123 0
-412 -146 0
412 136 178 13 123 146 0
-413 -184 0
-413 59 0
-413 29 0
-413 93 0
-413 61 0
413 184 -59 -29 -93 -61 0
-414 115 0
-414 -129 0
-414 80 0
-414 7 0
-414 128 0
414 -115 129 -80 -7 -128 0
-415 -89 0
-415 95 0
-415 4 0
-415 105 0
-415 -125 0
415 89 -95 -4 -105 125 0
411 412 413 414 415 0
-416 -187 0
-416 -186 0
-416 -62 0
-416 66 0
-416 142 0
416 187 186 62 -66 -142 0
-417 -190 0
-417 30 0
-417 173 0
-417 64 0
-417 -109 0
417 190 -30 -173 -64 109 0
-418 -167 0
-418 -29 0
-418 123 0
-418 -85 0
-418 118 0
418 167 29 -123 85 -118 0
-419 19 0
-419 -28 0
-419 8 0
-419 63 0
-419 -140 0
419 -19 28 -8 -63 140 0
-420 37 0
-420 151 0
-420 60 0
-420 -86 0
-420 -189 0
420 -37 -151 -60 86 189 0
416 417 418 419 420 0
-421 139 0
-421 2 0
-421 -7 0
-421 78 0
-421 -47 0
421 -139 -2 7 -78 47 0
-422 -13 0
-422 69 0
-422 147 0
-422 -91 0
-422 -116 0
422 13 -69 -147 91 116 0
-423 109 0
-423 -122 0
-423 -115 0
-423 -113 0
-423 -4 0
423 -109 122 115 113 4 0
-424 -42 0
-424 -96 0
-424 71 0
-424 111 0
-424 1 0
424 42 96 -71 -111 -1 0
-425 14 0
-425 -44 0
-425 144 0
-425 -117 0
-425 84 0
425 -14 44 -144 117 -84 0
421 422 423 424 425 0
-426 -143 0
-426 -109 0
-426 -5 0
-426 134 0
-426 -22 0
426 143 109 5 -134 22 0
-427 106 0
-427 -57 0
-427 1 0
-427 67 0
-427 -113 0
427 -106 57 -1 -67 113 0
-428 82 0
-428 136 0
-428 74 0
-428 178 0
-428 -33 0
428 -82 -136 -74 -178 33 0
-429 135 0
-429 -68 0
-429 -136 0
-429 190 0
-429 64 0
429 -135 68 136 -190 -64 0
-430 -118 0
-430 146 0
-430 -3 0
-430 -42 0
-430 48 0
430 118 -146 3 42 -48 0
426 427 428 429 430 0
